p edge 100 1980
e 1 6
e 1 8
e 1 9
e 1 12
e 1 13
e 1 15
e 1 18
e 1 19
e 1 21
e 1 23
e 1 24
e 1 25
e 1 26
e 1 27
e 1 29
e 1 32
e 1 36
e 1 38
e 1 39
e 1 45
e 1 46
e 1 47
e 1 48
e 1 52
e 1 54
e 1 57
e 1 58
e 1 62
e 1 66
e 1 69
e 1 71
e 1 72
e 1 80
e 1 82
e 1 83
e 1 86
e 1 88
e 1 90
e 1 94
e 1 95
e 1 97
e 1 100
e 2 4
e 2 6
e 2 7
e 2 8
e 2 9
e 2 10
e 2 11
e 2 13
e 2 15
e 2 20
e 2 24
e 2 32
e 2 36
e 2 37
e 2 38
e 2 40
e 2 43
e 2 49
e 2 54
e 2 62
e 2 63
e 2 65
e 2 66
e 2 67
e 2 68
e 2 69
e 2 71
e 2 72
e 2 77
e 2 81
e 2 82
e 2 83
e 2 84
e 2 86
e 2 89
e 3 4
e 3 6
e 3 10
e 3 11
e 3 12
e 3 14
e 3 18
e 3 21
e 3 22
e 3 23
e 3 24
e 3 25
e 3 26
e 3 27
e 3 30
e 3 32
e 3 33
e 3 38
e 3 40
e 3 42
e 3 43
e 3 44
e 3 46
e 3 47
e 3 51
e 3 52
e 3 54
e 3 57
e 3 59
e 3 62
e 3 63
e 3 64
e 3 66
e 3 69
e 3 71
e 3 74
e 3 76
e 3 77
e 3 78
e 3 79
e 3 92
e 3 96
e 3 97
e 3 98
e 4 5
e 4 7
e 4 8
e 4 9
e 4 13
e 4 15
e 4 19
e 4 23
e 4 25
e 4 28
e 4 36
e 4 38
e 4 39
e 4 40
e 4 41
e 4 46
e 4 51
e 4 60
e 4 61
e 4 62
e 4 63
e 4 65
e 4 70
e 4 73
e 4 82
e 4 84
e 4 86
e 4 89
e 4 90
e 4 91
e 4 92
e 4 94
e 4 98
e 4 99
e 5 10
e 5 12
e 5 13
e 5 15
e 5 19
e 5 21
e 5 28
e 5 31
e 5 32
e 5 34
e 5 35
e 5 38
e 5 39
e 5 42
e 5 46
e 5 49
e 5 54
e 5 55
e 5 57
e 5 58
e 5 59
e 5 62
e 5 67
e 5 68
e 5 70
e 5 76
e 5 81
e 5 82
e 5 83
e 5 85
e 5 86
e 5 87
e 5 91
e 5 97
e 6 7
e 6 11
e 6 12
e 6 16
e 6 17
e 6 19
e 6 20
e 6 22
e 6 26
e 6 27
e 6 29
e 6 30
e 6 41
e 6 42
e 6 43
e 6 49
e 6 50
e 6 51
e 6 53
e 6 54
e 6 60
e 6 62
e 6 67
e 6 69
e 6 70
e 6 73
e 6 74
e 6 79
e 6 81
e 6 86
e 6 87
e 6 88
e 6 92
e 6 97
e 6 98
e 6 99
e 6 100
e 7 10
e 7 11
e 7 12
e 7 13
e 7 18
e 7 20
e 7 22
e 7 23
e 7 25
e 7 29
e 7 31
e 7 33
e 7 34
e 7 35
e 7 36
e 7 39
e 7 41
e 7 46
e 7 47
e 7 49
e 7 51
e 7 62
e 7 68
e 7 71
e 7 72
e 7 73
e 7 74
e 7 75
e 7 80
e 7 81
e 7 82
e 7 84
e 7 88
e 7 90
e 7 99
e 8 10
e 8 12
e 8 13
e 8 16
e 8 18
e 8 20
e 8 23
e 8 24
e 8 27
e 8 29
e 8 32
e 8 33
e 8 36
e 8 40
e 8 42
e 8 44
e 8 54
e 8 60
e 8 63
e 8 64
e 8 65
e 8 69
e 8 70
e 8 73
e 8 79
e 8 81
e 8 85
e 8 90
e 8 94
e 8 95
e 9 10
e 9 12
e 9 14
e 9 15
e 9 17
e 9 23
e 9 26
e 9 29
e 9 31
e 9 32
e 9 37
e 9 48
e 9 49
e 9 50
e 9 63
e 9 70
e 9 71
e 9 72
e 9 77
e 9 79
e 9 84
e 9 86
e 9 87
e 9 89
e 9 90
e 9 91
e 9 94
e 9 97
e 9 100
e 10 11
e 10 12
e 10 22
e 10 23
e 10 34
e 10 36
e 10 37
e 10 42
e 10 43
e 10 45
e 10 48
e 10 49
e 10 50
e 10 52
e 10 53
e 10 55
e 10 56
e 10 57
e 10 58
e 10 63
e 10 64
e 10 75
e 10 77
e 10 81
e 10 84
e 10 86
e 10 89
e 10 91
e 10 94
e 10 95
e 10 98
e 10 100
e 11 12
e 11 22
e 11 24
e 11 25
e 11 26
e 11 28
e 11 30
e 11 32
e 11 34
e 11 40
e 11 41
e 11 45
e 11 48
e 11 51
e 11 53
e 11 54
e 11 56
e 11 61
e 11 62
e 11 64
e 11 71
e 11 76
e 11 81
e 11 83
e 11 84
e 11 85
e 11 86
e 11 87
e 11 88
e 11 89
e 11 90
e 11 94
e 11 96
e 11 99
e 11 100
e 12 14
e 12 15
e 12 18
e 12 19
e 12 20
e 12 21
e 12 22
e 12 23
e 12 25
e 12 26
e 12 28
e 12 29
e 12 30
e 12 31
e 12 33
e 12 39
e 12 40
e 12 43
e 12 51
e 12 52
e 12 53
e 12 58
e 12 59
e 12 61
e 12 63
e 12 68
e 12 72
e 12 80
e 12 81
e 12 87
e 12 88
e 12 89
e 12 90
e 12 92
e 12 93
e 12 95
e 12 97
e 12 99
e 12 100
e 13 16
e 13 18
e 13 19
e 13 20
e 13 23
e 13 26
e 13 27
e 13 32
e 13 33
e 13 34
e 13 35
e 13 37
e 13 38
e 13 39
e 13 42
e 13 44
e 13 47
e 13 48
e 13 50
e 13 51
e 13 52
e 13 54
e 13 55
e 13 56
e 13 59
e 13 63
e 13 64
e 13 65
e 13 67
e 13 69
e 13 71
e 13 74
e 13 75
e 13 78
e 13 80
e 13 81
e 13 83
e 13 84
e 13 87
e 13 89
e 13 91
e 13 99
e 13 100
e 14 15
e 14 17
e 14 19
e 14 23
e 14 27
e 14 29
e 14 30
e 14 33
e 14 34
e 14 44
e 14 45
e 14 46
e 14 47
e 14 48
e 14 49
e 14 59
e 14 62
e 14 67
e 14 68
e 14 70
e 14 74
e 14 77
e 14 78
e 14 82
e 14 83
e 14 85
e 14 91
e 14 92
e 14 94
e 14 99
e 15 17
e 15 20
e 15 24
e 15 26
e 15 28
e 15 29
e 15 31
e 15 32
e 15 36
e 15 37
e 15 38
e 15 39
e 15 40
e 15 42
e 15 43
e 15 45
e 15 50
e 15 52
e 15 54
e 15 55
e 15 56
e 15 58
e 15 60
e 15 61
e 15 62
e 15 65
e 15 70
e 15 74
e 15 77
e 15 80
e 15 84
e 15 87
e 15 88
e 15 89
e 15 92
e 15 99
e 15 100
e 16 18
e 16 21
e 16 28
e 16 30
e 16 33
e 16 36
e 16 40
e 16 41
e 16 45
e 16 47
e 16 49
e 16 54
e 16 58
e 16 59
e 16 62
e 16 64
e 16 65
e 16 66
e 16 67
e 16 76
e 16 77
e 16 78
e 16 81
e 16 84
e 16 85
e 16 86
e 16 91
e 16 92
e 16 93
e 16 96
e 16 97
e 17 18
e 17 19
e 17 22
e 17 24
e 17 31
e 17 32
e 17 36
e 17 42
e 17 45
e 17 46
e 17 47
e 17 48
e 17 50
e 17 52
e 17 53
e 17 55
e 17 57
e 17 58
e 17 59
e 17 63
e 17 64
e 17 67
e 17 69
e 17 70
e 17 72
e 17 74
e 17 75
e 17 77
e 17 78
e 17 79
e 17 81
e 17 82
e 17 86
e 17 89
e 17 90
e 17 94
e 17 95
e 17 98
e 18 19
e 18 20
e 18 21
e 18 28
e 18 30
e 18 32
e 18 33
e 18 40
e 18 42
e 18 44
e 18 50
e 18 51
e 18 58
e 18 59
e 18 61
e 18 62
e 18 64
e 18 65
e 18 67
e 18 68
e 18 71
e 18 72
e 18 73
e 18 74
e 18 78
e 18 79
e 18 83
e 18 85
e 18 90
e 18 92
e 18 96
e 18 97
e 18 98
e 18 100
e 19 23
e 19 24
e 19 25
e 19 30
e 19 32
e 19 35
e 19 37
e 19 39
e 19 40
e 19 43
e 19 47
e 19 48
e 19 49
e 19 50
e 19 51
e 19 52
e 19 57
e 19 60
e 19 61
e 19 64
e 19 67
e 19 72
e 19 73
e 19 76
e 19 78
e 19 79
e 19 80
e 19 86
e 19 91
e 19 98
e 19 99
e 20 21
e 20 22
e 20 23
e 20 24
e 20 25
e 20 28
e 20 32
e 20 36
e 20 37
e 20 39
e 20 40
e 20 41
e 20 44
e 20 46
e 20 48
e 20 49
e 20 50
e 20 54
e 20 56
e 20 66
e 20 67
e 20 68
e 20 73
e 20 77
e 20 78
e 20 79
e 20 80
e 20 86
e 20 89
e 20 92
e 20 95
e 21 24
e 21 28
e 21 29
e 21 30
e 21 32
e 21 34
e 21 37
e 21 39
e 21 45
e 21 46
e 21 47
e 21 48
e 21 52
e 21 54
e 21 56
e 21 57
e 21 58
e 21 60
e 21 66
e 21 67
e 21 71
e 21 73
e 21 80
e 21 81
e 21 83
e 21 84
e 21 86
e 21 87
e 21 89
e 21 92
e 21 96
e 21 98
e 21 99
e 22 24
e 22 25
e 22 26
e 22 32
e 22 34
e 22 37
e 22 40
e 22 41
e 22 43
e 22 46
e 22 47
e 22 49
e 22 50
e 22 52
e 22 55
e 22 57
e 22 63
e 22 66
e 22 67
e 22 69
e 22 71
e 22 73
e 22 74
e 22 75
e 22 78
e 22 81
e 22 82
e 22 83
e 22 86
e 22 88
e 22 89
e 22 92
e 22 94
e 23 24
e 23 25
e 23 26
e 23 27
e 23 28
e 23 29
e 23 31
e 23 34
e 23 35
e 23 36
e 23 38
e 23 42
e 23 46
e 23 49
e 23 51
e 23 55
e 23 60
e 23 62
e 23 64
e 23 65
e 23 66
e 23 67
e 23 71
e 23 72
e 23 73
e 23 74
e 23 75
e 23 78
e 23 80
e 23 83
e 23 86
e 23 87
e 23 88
e 23 89
e 23 90
e 23 92
e 23 93
e 23 100
e 24 29
e 24 30
e 24 32
e 24 33
e 24 34
e 24 35
e 24 36
e 24 38
e 24 43
e 24 47
e 24 48
e 24 51
e 24 53
e 24 55
e 24 59
e 24 60
e 24 68
e 24 69
e 24 72
e 24 73
e 24 75
e 24 80
e 24 83
e 24 85
e 24 86
e 24 87
e 24 90
e 24 92
e 24 94
e 24 95
e 24 99
e 24 100
e 25 30
e 25 32
e 25 34
e 25 35
e 25 38
e 25 39
e 25 41
e 25 42
e 25 43
e 25 47
e 25 49
e 25 51
e 25 52
e 25 55
e 25 58
e 25 62
e 25 63
e 25 66
e 25 69
e 25 70
e 25 76
e 25 96
e 26 28
e 26 29
e 26 32
e 26 36
e 26 42
e 26 45
e 26 47
e 26 49
e 26 50
e 26 51
e 26 54
e 26 55
e 26 57
e 26 62
e 26 63
e 26 64
e 26 67
e 26 68
e 26 70
e 26 75
e 26 77
e 26 79
e 26 86
e 26 90
e 26 94
e 26 96
e 26 98
e 26 99
e 27 28
e 27 30
e 27 39
e 27 40
e 27 48
e 27 49
e 27 50
e 27 52
e 27 53
e 27 55
e 27 58
e 27 59
e 27 61
e 27 65
e 27 71
e 27 72
e 27 75
e 27 78
e 27 80
e 27 81
e 27 83
e 27 84
e 27 85
e 27 90
e 27 91
e 27 92
e 27 93
e 27 97
e 28 29
e 28 34
e 28 38
e 28 41
e 28 44
e 28 45
e 28 52
e 28 53
e 28 54
e 28 55
e 28 56
e 28 59
e 28 61
e 28 63
e 28 64
e 28 66
e 28 68
e 28 70
e 28 71
e 28 76
e 28 79
e 28 81
e 28 84
e 28 88
e 28 89
e 28 93
e 28 95
e 28 97
e 28 99
e 28 100
e 29 31
e 29 33
e 29 35
e 29 38
e 29 40
e 29 43
e 29 47
e 29 48
e 29 50
e 29 52
e 29 53
e 29 55
e 29 57
e 29 62
e 29 63
e 29 64
e 29 66
e 29 67
e 29 75
e 29 78
e 29 81
e 29 85
e 29 87
e 29 94
e 29 96
e 29 98
e 30 31
e 30 34
e 30 35
e 30 38
e 30 39
e 30 42
e 30 43
e 30 46
e 30 47
e 30 52
e 30 53
e 30 54
e 30 56
e 30 57
e 30 58
e 30 59
e 30 60
e 30 64
e 30 65
e 30 67
e 30 69
e 30 73
e 30 74
e 30 76
e 30 81
e 30 82
e 30 85
e 30 86
e 30 87
e 30 88
e 30 99
e 31 33
e 31 34
e 31 36
e 31 41
e 31 42
e 31 44
e 31 45
e 31 47
e 31 52
e 31 55
e 31 60
e 31 61
e 31 62
e 31 63
e 31 66
e 31 68
e 31 69
e 31 70
e 31 71
e 31 75
e 31 76
e 31 77
e 31 81
e 31 84
e 31 85
e 31 88
e 31 90
e 31 93
e 31 94
e 31 95
e 31 99
e 32 33
e 32 38
e 32 39
e 32 40
e 32 42
e 32 44
e 32 46
e 32 49
e 32 51
e 32 55
e 32 57
e 32 65
e 32 66
e 32 69
e 32 75
e 32 77
e 32 79
e 32 82
e 32 86
e 32 90
e 32 93
e 32 95
e 32 96
e 32 98
e 33 36
e 33 37
e 33 38
e 33 39
e 33 40
e 33 41
e 33 42
e 33 45
e 33 46
e 33 47
e 33 49
e 33 53
e 33 54
e 33 67
e 33 70
e 33 71
e 33 76
e 33 78
e 33 79
e 33 80
e 33 81
e 33 83
e 33 86
e 33 87
e 33 88
e 33 91
e 33 92
e 33 93
e 33 95
e 33 98
e 34 41
e 34 42
e 34 47
e 34 48
e 34 51
e 34 58
e 34 59
e 34 61
e 34 66
e 34 68
e 34 71
e 34 72
e 34 83
e 34 87
e 34 88
e 34 89
e 34 90
e 34 91
e 34 97
e 34 99
e 34 100
e 35 39
e 35 40
e 35 41
e 35 42
e 35 43
e 35 44
e 35 49
e 35 51
e 35 52
e 35 65
e 35 67
e 35 70
e 35 71
e 35 72
e 35 80
e 35 81
e 35 83
e 35 84
e 35 85
e 35 86
e 35 89
e 35 93
e 35 95
e 35 96
e 35 99
e 35 100
e 36 38
e 36 39
e 36 43
e 36 44
e 36 45
e 36 50
e 36 55
e 36 57
e 36 58
e 36 60
e 36 62
e 36 63
e 36 64
e 36 65
e 36 69
e 36 70
e 36 72
e 36 73
e 36 74
e 36 75
e 36 77
e 36 78
e 36 81
e 36 86
e 36 87
e 36 88
e 36 90
e 36 93
e 36 95
e 36 97
e 36 99
e 36 100
e 37 41
e 37 42
e 37 44
e 37 45
e 37 48
e 37 52
e 37 62
e 37 66
e 37 67
e 37 68
e 37 69
e 37 74
e 37 77
e 37 78
e 37 79
e 37 81
e 37 83
e 37 89
e 37 93
e 37 96
e 37 99
e 38 39
e 38 41
e 38 48
e 38 51
e 38 52
e 38 54
e 38 55
e 38 59
e 38 62
e 38 63
e 38 68
e 38 71
e 38 74
e 38 77
e 38 83
e 38 94
e 38 95
e 38 100
e 39 40
e 39 42
e 39 47
e 39 49
e 39 53
e 39 54
e 39 57
e 39 58
e 39 62
e 39 67
e 39 70
e 39 74
e 39 75
e 39 79
e 39 83
e 39 84
e 39 85
e 39 87
e 39 94
e 39 100
e 40 42
e 40 47
e 40 50
e 40 52
e 40 53
e 40 60
e 40 62
e 40 63
e 40 65
e 40 66
e 40 71
e 40 72
e 40 77
e 40 78
e 40 81
e 40 83
e 40 84
e 40 85
e 40 90
e 40 94
e 40 95
e 40 96
e 41 45
e 41 47
e 41 48
e 41 51
e 41 55
e 41 56
e 41 64
e 41 67
e 41 68
e 41 72
e 41 76
e 41 78
e 41 79
e 41 82
e 41 84
e 41 85
e 41 86
e 41 88
e 41 89
e 41 91
e 41 96
e 41 98
e 41 99
e 42 44
e 42 45
e 42 47
e 42 50
e 42 52
e 42 54
e 42 56
e 42 58
e 42 60
e 42 62
e 42 63
e 42 64
e 42 67
e 42 74
e 42 84
e 42 89
e 42 90
e 42 91
e 42 92
e 42 98
e 43 44
e 43 46
e 43 48
e 43 52
e 43 54
e 43 58
e 43 62
e 43 64
e 43 67
e 43 71
e 43 72
e 43 73
e 43 74
e 43 78
e 43 80
e 43 83
e 43 85
e 43 97
e 43 100
e 44 46
e 44 48
e 44 50
e 44 52
e 44 54
e 44 56
e 44 57
e 44 61
e 44 65
e 44 70
e 44 77
e 44 79
e 44 80
e 44 81
e 44 83
e 44 84
e 44 85
e 44 88
e 44 90
e 44 91
e 44 92
e 44 93
e 44 94
e 44 96
e 44 98
e 44 99
e 44 100
e 45 50
e 45 53
e 45 56
e 45 58
e 45 60
e 45 62
e 45 65
e 45 67
e 45 70
e 45 73
e 45 74
e 45 75
e 45 76
e 45 77
e 45 79
e 45 80
e 45 81
e 45 85
e 45 86
e 45 88
e 45 93
e 46 48
e 46 50
e 46 53
e 46 54
e 46 55
e 46 63
e 46 67
e 46 68
e 46 69
e 46 71
e 46 75
e 46 78
e 46 83
e 46 85
e 46 86
e 46 87
e 46 90
e 46 93
e 46 98
e 46 99
e 46 100
e 47 48
e 47 52
e 47 53
e 47 60
e 47 61
e 47 63
e 47 64
e 47 66
e 47 67
e 47 72
e 47 73
e 47 76
e 47 79
e 47 80
e 47 81
e 47 83
e 47 86
e 47 88
e 47 89
e 47 90
e 47 91
e 47 92
e 47 93
e 47 95
e 47 97
e 47 99
e 47 100
e 48 50
e 48 54
e 48 57
e 48 59
e 48 62
e 48 64
e 48 65
e 48 68
e 48 73
e 48 74
e 48 77
e 48 82
e 48 87
e 48 88
e 48 93
e 48 94
e 48 95
e 48 97
e 48 100
e 49 50
e 49 52
e 49 53
e 49 55
e 49 56
e 49 57
e 49 61
e 49 67
e 49 68
e 49 74
e 49 78
e 49 82
e 49 83
e 49 84
e 49 86
e 49 88
e 49 89
e 49 94
e 49 96
e 49 98
e 49 100
e 50 52
e 50 53
e 50 54
e 50 55
e 50 57
e 50 58
e 50 61
e 50 62
e 50 67
e 50 68
e 50 70
e 50 74
e 50 75
e 50 76
e 50 79
e 50 81
e 50 82
e 50 85
e 50 86
e 50 87
e 50 89
e 50 92
e 50 93
e 50 95
e 50 98
e 51 52
e 51 53
e 51 56
e 51 58
e 51 68
e 51 71
e 51 72
e 51 73
e 51 75
e 51 77
e 51 78
e 51 81
e 51 82
e 51 83
e 51 85
e 51 86
e 51 87
e 51 88
e 51 89
e 51 92
e 51 97
e 52 53
e 52 54
e 52 55
e 52 58
e 52 59
e 52 61
e 52 64
e 52 65
e 52 67
e 52 70
e 52 73
e 52 88
e 52 94
e 52 96
e 52 98
e 52 99
e 52 100
e 53 56
e 53 59
e 53 60
e 53 61
e 53 63
e 53 66
e 53 68
e 53 74
e 53 78
e 53 79
e 53 81
e 53 83
e 53 85
e 53 87
e 53 88
e 53 89
e 53 91
e 53 96
e 53 97
e 53 98
e 54 55
e 54 56
e 54 57
e 54 59
e 54 60
e 54 61
e 54 63
e 54 67
e 54 68
e 54 69
e 54 73
e 54 74
e 54 75
e 54 84
e 54 85
e 54 90
e 54 93
e 54 94
e 54 95
e 54 97
e 54 99
e 54 100
e 55 57
e 55 59
e 55 61
e 55 63
e 55 76
e 55 77
e 55 85
e 55 87
e 55 90
e 55 94
e 55 95
e 55 96
e 55 97
e 55 99
e 56 57
e 56 59
e 56 60
e 56 64
e 56 66
e 56 68
e 56 71
e 56 73
e 56 76
e 56 77
e 56 78
e 56 79
e 56 81
e 56 83
e 56 85
e 56 86
e 56 87
e 56 88
e 56 91
e 56 96
e 56 97
e 57 60
e 57 63
e 57 64
e 57 65
e 57 67
e 57 68
e 57 69
e 57 70
e 57 72
e 57 74
e 57 76
e 57 77
e 57 79
e 57 87
e 57 94
e 57 97
e 57 99
e 57 100
e 58 59
e 58 62
e 58 67
e 58 71
e 58 73
e 58 74
e 58 75
e 58 76
e 58 78
e 58 82
e 58 85
e 58 87
e 58 89
e 58 95
e 58 98
e 58 99
e 59 62
e 59 66
e 59 72
e 59 73
e 59 77
e 59 85
e 59 86
e 59 87
e 59 89
e 59 93
e 59 94
e 59 98
e 59 99
e 59 100
e 60 64
e 60 65
e 60 67
e 60 68
e 60 69
e 60 70
e 60 72
e 60 74
e 60 78
e 60 79
e 60 81
e 60 83
e 60 84
e 60 85
e 60 87
e 60 90
e 60 92
e 60 94
e 60 95
e 60 96
e 60 99
e 61 62
e 61 63
e 61 66
e 61 69
e 61 71
e 61 73
e 61 78
e 61 80
e 61 84
e 61 87
e 61 88
e 61 90
e 61 92
e 61 96
e 61 98
e 61 99
e 62 70
e 62 75
e 62 76
e 62 77
e 62 81
e 62 82
e 62 84
e 62 86
e 62 87
e 62 88
e 62 89
e 62 92
e 62 93
e 62 98
e 63 66
e 63 67
e 63 68
e 63 71
e 63 72
e 63 77
e 63 80
e 63 84
e 63 87
e 63 90
e 63 92
e 63 93
e 63 97
e 63 99
e 63 100
e 64 70
e 64 72
e 64 75
e 64 76
e 64 81
e 64 83
e 64 85
e 64 89
e 64 90
e 64 91
e 64 97
e 65 70
e 65 71
e 65 74
e 65 76
e 65 79
e 65 80
e 65 81
e 65 82
e 65 83
e 65 85
e 65 88
e 65 90
e 65 94
e 65 95
e 65 96
e 65 97
e 65 98
e 66 67
e 66 71
e 66 72
e 66 73
e 66 75
e 66 76
e 66 79
e 66 83
e 66 84
e 66 85
e 66 86
e 66 89
e 66 91
e 66 93
e 66 95
e 66 99
e 67 74
e 67 75
e 67 77
e 67 78
e 67 79
e 67 80
e 67 81
e 67 84
e 67 86
e 67 90
e 67 96
e 67 99
e 68 69
e 68 70
e 68 71
e 68 74
e 68 75
e 68 76
e 68 81
e 68 82
e 68 87
e 68 88
e 68 91
e 68 93
e 68 94
e 68 98
e 68 100
e 69 71
e 69 75
e 69 76
e 69 78
e 69 79
e 69 83
e 69 85
e 69 93
e 69 99
e 69 100
e 70 74
e 70 75
e 70 76
e 70 77
e 70 79
e 70 80
e 70 81
e 70 83
e 70 85
e 70 86
e 70 88
e 70 90
e 70 91
e 70 92
e 70 93
e 70 95
e 70 98
e 70 100
e 71 73
e 71 76
e 71 77
e 71 79
e 71 80
e 71 83
e 71 84
e 71 85
e 71 86
e 71 88
e 71 89
e 71 90
e 71 91
e 71 96
e 71 97
e 71 100
e 72 74
e 72 76
e 72 78
e 72 79
e 72 81
e 72 85
e 72 86
e 72 89
e 72 91
e 72 94
e 72 95
e 72 97
e 73 74
e 73 75
e 73 77
e 73 78
e 73 86
e 73 87
e 73 89
e 73 90
e 73 93
e 73 96
e 74 75
e 74 76
e 74 81
e 74 83
e 74 91
e 74 94
e 74 95
e 74 98
e 75 78
e 75 79
e 75 87
e 75 91
e 75 92
e 75 93
e 75 95
e 75 96
e 75 97
e 76 77
e 76 80
e 76 90
e 76 97
e 76 99
e 77 78
e 77 80
e 77 82
e 77 85
e 77 86
e 77 90
e 77 94
e 77 95
e 77 97
e 77 99
e 78 79
e 78 82
e 78 84
e 78 85
e 78 86
e 78 90
e 78 92
e 78 93
e 78 96
e 78 97
e 78 98
e 78 100
e 79 84
e 79 87
e 79 88
e 79 94
e 79 96
e 79 97
e 79 99
e 80 81
e 80 82
e 80 87
e 80 88
e 80 89
e 80 91
e 80 92
e 80 94
e 80 95
e 80 97
e 80 98
e 80 100
e 81 84
e 81 87
e 81 88
e 81 90
e 81 91
e 82 85
e 82 87
e 82 89
e 82 90
e 82 91
e 82 93
e 82 96
e 82 100
e 83 84
e 83 86
e 83 87
e 83 89
e 83 92
e 83 93
e 83 95
e 83 97
e 83 99
e 84 86
e 84 89
e 84 91
e 84 93
e 84 96
e 84 97
e 84 98
e 84 100
e 85 90
e 85 91
e 85 92
e 85 93
e 85 94
e 86 91
e 86 95
e 86 98
e 86 99
e 87 92
e 87 95
e 87 96
e 87 98
e 87 99
e 88 89
e 88 90
e 88 92
e 88 93
e 88 94
e 88 97
e 88 99
e 89 90
e 89 96
e 89 98
e 89 100
e 90 92
e 90 94
e 90 96
e 90 97
e 90 99
e 90 100
e 91 92
e 91 95
e 91 96
e 91 100
e 92 93
e 92 95
e 92 99
e 93 94
e 93 95
e 93 96
e 93 97
e 93 100
e 94 95
e 94 96
e 94 97
e 94 98
e 95 96
e 95 99
e 96 98
e 97 98
